WARNING: for repeatability, setting FPU to use double precision
============================[ Problem Statistics ]=============================
|                                                                             |
|  Number of variables:           100                                         |
|  Number of clauses:             449                                         |
|  Parse time:                   0.00 s                                       |
|  Eliminated clauses:           0.00 Mb                                      |
|  Simplification time:          0.00 s                                       |
|                                                                             |
============================[ Search Statistics ]==============================
| Conflicts |          ORIGINAL         |          LEARNT          | Progress |
|           |    Vars  Clauses Literals |    Limit  Clauses Lit/Cl |          |
===============================================================================
|       100 |      96      445     1356 |      163      100      6 |  0.010 % |
===============================================================================
restarts              : 2
conflicts             : 114            (55773 /sec)
decisions             : 150            (0.00 % random) (73386 /sec)
propagations          : 2478           (1212329 /sec)
conflict literals     : 720            (16.18 % deleted)
Memory used           : 13.00 MB
CPU time              : 0.002044 s

SATISFIABLE
